c turning on binary mode checking
c parsing input formula with 202048 variables and 780980 clauses
c finished parsing, read 25542376 bytes from proof file
c detected empty clause; start verification via backward checking
c 63203 of 780980 clauses in core                            
c 105804 of 568842 lemmas in core using 1283895 resolution steps
c 0 RAT lemmas in core; 13954 redundant literals in core lemmas
s VERIFIED
c verification time: 6.206 seconds
